p cnf 71 13
-15 24 2 42 -4 -40 3 6 -18 -53 63 0
28 19 -53 -52 -65 -15 70 -71 -3 42 41 0
-11 -41 -1 60 -2 23 15 -3 -36 -29 53 0
54 -45 -9 27 2 -17 -56 -6 -23 -48 -24 0
-16 -20 5 -28 -34 -26 50 1 8 -40 48 0
-6 19 -3 51 5 -1 8 -68 -70 -42 -40 0
-14 8 7 -9 4 -11 -1 15 -28 59 23 0
68 40 26 -8 -2 -34 -1 -11 -21 14 42 0
20 53 3 33 30 4 -40 -8 -5 -16 -39 0
47 -39 -5 41 -3 60 28 1 18 -48 40 0
11 39 4 -3 1 33 58 -22 2 53 -5 0
15 -46 54 -10 71 -3 -22 9 16 -52 -48 0
-14 -25 11 -1 22 -60 -57 4 -32 61 6 0
